NAME : n150w60.004.998.tour
COMMENT : Length = 998
COMMENT : Found by LKH [Keld Helsgaun] Tue Nov  7 19:36:38 2017
TYPE : TOUR
DIMENSION : 151
TOUR_SECTION
1
132
130
45
40
138
114
5
145
93
4
27
78
115
99
12
47
148
43
88
60
77
136
63
13
39
8
85
76
82
150
36
84
67
9
33
141
22
108
113
137
42
44
49
56
71
126
104
123
38
73
37
19
124
146
119
118
46
50
149
75
17
65
74
35
106
24
68
101
80
128
29
139
16
48
125
96
87
144
55
95
120
140
102
26
129
90
103
66
143
57
7
18
10
64
69
134
61
94
142
109
72
147
70
79
30
111
59
14
97
122
15
51
98
28
3
86
100
41
58
127
25
133
20
31
34
54
2
135
53
110
62
92
121
131
6
116
91
107
52
89
11
21
105
117
23
32
81
83
151
112
-1
EOF
